153811
224 223 222 221 220 219 218 217 216 215 214 213 212 112 113 114 115 116 12 137 138 139 140 141 37 162 163 164 165 166 62 187 188 189 190 191 87 88 89 90 91 92 93 196 195 194 193 192 68 171 170 169 168 167 43 146 145 144 143 142 18 121 120 119 118 117 19 20 21 22 23 24 147 148 149 150 151 49 172 173 174 175 176 74 197 198 199 200 201 99 100 101 102 103 104 105 206 205 204 203 202 80 181 180 179 178 177 55 156 155 154 153 152 30 131 130 129 128 127 5 6 7 8 9 10 11 132 133 134 135 136 36 157 158 159 160 161 61 182 183 184 185 186 86 207 208 209 210 211 111 110 109 108 107 106 81 82 83 84 85 79 78 77 76 75 73 72 71 70 69 67 66 65 64 63 39 40 41 42 44 45 46 47 48 50 51 52 53 54 56 57 58 59 60 35 34 33 32 31 29 28 27 26 0 1 2 3 4 17 16 15 14 13 38 94 95 96 97 98 25 126 125 124 123 122 
